0 0 0
0 1 75
0 2 69
0 3 18
0 4 2
0 5 29
0 6 196
0 7 164
0 8 192
0 9 57
1 1 0
1 2 43
1 3 170
1 4 172
1 5 49
1 6 66
1 7 176
1 8 1
1 9 51
2 2 0
2 3 176
2 4 35
2 5 162
2 6 48
2 7 71
2 8 57
2 9 73
3 3 0
3 4 11
3 5 16
3 6 12
3 7 13
3 8 22
3 9 31
4 4 0
4 5 196
4 6 62
4 7 13
4 8 60
4 9 28
5 5 0
5 6 192
5 7 68
5 8 35
5 9 70
6 6 0
6 7 45
6 8 23
6 9 26
7 7 0
7 8 198
7 9 47
8 8 0
8 9 54
9 9 0
